opti conjugate nosymmetry conp 
pressure 100 GPa
title
ASE calculation
end

cell
 9.854775  5.863633  5.248143 48.55916 98.42152 76.47614
frac
 Mg core  0.8189095   0.9763420   0.8744970
 Mg core  0.8227615   0.9715670   0.3777650
 Mg core  0.1746090   0.6287080   0.1598690
 Mg core  0.3408720   0.9533840   0.1114380
 Al core  0.4891745   0.2715670   0.3134240
 Al core  0.9929475   0.2910830   0.9326960
 Al core  0.4941495   0.2795630   0.8061730
 Al core  0.6435565   0.6445470   0.0769400
 Al core  0.6458265   0.6476800   0.5727550
 Al core  0.9885075   0.3027380   0.4255580
 Al core  0.0299370   0.2590120   0.2207410
 Al core  0.3492990   0.9455910   0.6155320
 O  core  0.3173745   0.6221990   0.0250930
 O  core  0.9484475   0.6019130   0.4390100
 O  core  0.6721805   0.8955240   0.1460100
 O  core  0.5633945   0.4674520   0.9386850
 O  core  0.5686725   0.4594730   0.4424440
 O  core  0.9597435   0.6041130   0.9422640
 O  core  0.8162725   0.3075100   0.8762680
 O  core  0.6698375   0.8927150   0.6460540
 O  core  0.8133065   0.3085070   0.3719900
 O  core  0.4686710   0.5853160   0.9654500
 O  core  0.0905800   0.4399980   0.4500700
 O  core  0.3467790   0.2543070   0.7723070
 O  core  0.3539710   0.2362320   0.3109860
 O  core  0.2030990   0.8804920   0.8280160
 O  core  0.0938730   0.4286770   0.9258780
 O  core  0.2127830   0.8830000   0.3794370
space
1
species
Mg  2.0
Al  3.0
O  -2.0

lennard 12 6
Mg O   1.50 0.00 0.00 6.0
Al O   1.50 0.00 0.00 6.0
O O    1.50 0.00 0.00 6.0
Mg Mg  1.50 0.00 0.00 6.0
Mg Al  1.50 0.00 0.00 6.0
Al Al  1.50 0.00 0.00 6.0

buck
Mg O 1428.5 0.2945 0.0 0.0 10.0	
Al O 1114.9 0.3118 0.0 0.0 10.0
O O  2023.8 0.2674 0.0 0.0 10.0
maxcyc 850
switch rfo 0.010
