Mg Al O 
 1.0000000000000000
     7.1822979667319551    0.0000000000000004    0.0000000000000004
     0.0000000000000000   10.5486103130983988    0.0000000000000006
     0.0000000000000000    0.0000000000000000    4.6792694919205493
 Mg  Al  O  
   4   8  16
Cartesian
  1.7955744916829888  0.0000000000000001  2.2086794524785680
  1.7955744916829888  5.2743051565491994  0.1309552934817071
  5.3867234750489663  0.0000000000000003  2.4705900394419817
  5.3867234750489663  5.2743051565491994  4.5483141984388435
  0.0000000000000000  5.2743051565491994  2.3396347459602751
  3.5911489833659775  5.2743051565491994  2.3396347459602751
  3.5911489833659775  0.0000000000000002  0.0000000000000002
  0.0000000000000000  0.0000000000000000  0.0000000000000000
  4.7307281860271440  8.7010833534197900  2.8233414201642546
  6.0427187640707887  1.8475269596786092  2.8233414201642550
  6.0427187640707887  3.4267781968705910  4.1955628177165707
  4.7307281860271440  7.1218321162278082  4.1955628177165707
  2.4515697807048116  1.8475269596786090  1.8559280717562956
  1.1395792026611660  8.7010833534197900  1.8559280717562958
  1.1395792026611660  7.1218321162278082  0.4837066742039798
  2.4515697807048116  3.4267781968705906  0.4837066742039797
  1.4295254253649927  2.6371525782745997  3.5094521189404122
  2.1616235580009855  7.9114577348237995  3.5094521189404126
  5.7527725413669621  7.9114577348237995  1.1698173729801382
  5.0206744087309714  2.6371525782746001  1.1698173729801378
  2.2997889502180118  1.0217502406378507  3.8022727961303140
  1.2913600331479655  9.5268600724605488  3.8022727961303144
  1.2913600331479655  6.2960553971870503  3.2166314417505117
  2.2997889502180118  4.2525549159113494  3.2166314417505117
  4.8825090165139429  9.5268600724605488  0.8769966957902371
  5.8909379335839906  1.0217502406378509  0.8769966957902366
  5.8909379335839906  4.2525549159113494  1.4626380501700391
  4.8825090165139429  6.2960553971870503  1.4626380501700396
