opti conjugate nosymmetry conp 
pressure 100 GPa
title
ASE calculation
end

cell
 8.520380  9.296950  2.693741 90.73432 71.64712 91.68256
frac
 Mg core  0.7547087   0.2123484   0.9680015
 Mg core  0.7931060   0.6507882   0.9768599
 Mg core  0.2649439   0.0166008   0.1358470
 Mg core  0.3034194   0.4649211   0.5005267
 Al core  0.4052666   0.1726038   0.5707478
 Al core  0.0620810   0.2409335   0.0876549
 Al core  0.5063569   0.6660451   0.8872309
 Al core  0.6113726   0.9222094   0.4138178
 Al core  0.1735382   0.7395234   0.9214016
 Al core  0.9467682   0.9682149   0.2311632
 Al core  0.6151011   0.3961877   0.6079086
 Al core  0.9686318   0.4873706   0.6068078
 O  core  0.5511491   0.2088737   0.8523642
 O  core  0.7010637   0.7972293   0.8396687
 O  core  0.1551558   0.9029915   0.6273541
 O  core  0.2850097   0.6404373   0.2348866
 O  core  0.1384486   0.3692414   0.6909925
 O  core  0.4531741   0.3613881   0.1096417
 O  core  0.9803096   0.1359035   0.6187793
 O  core  0.2512691   0.1496862   0.2173444
 O  core  0.0526655   0.6010947   0.0127750
 O  core  0.7566593   0.0425704   0.6137833
 O  core  0.8753964   0.3515737   0.1994890
 O  core  0.9759641   0.8481225   0.7749451
 O  core  0.4706053   0.9961358   0.0168633
 O  core  0.7462615   0.4720017   0.1031779
 O  core  0.5661929   0.5625357   0.3425931
 O  core  0.4677008   0.7681174   0.4338811
space
1
species
Mg  2.0
Al  3.0
O  -2.0
lennard 12 6
Mg O   1.50 0.00 0.00 6.0
Al O   1.50 0.00 0.00 6.0
O O    1.50 0.00 0.00 6.0
Mg Mg  1.50 0.00 0.00 6.0
Mg Al  1.50 0.00 0.00 6.0
Al Al  1.50 0.00 0.00 6.0
buck
Mg O 1428.5 0.2945 0.0 0.0 10.0
Al O 1114.9 0.3118 0.0 0.0 10.0
O O  2023.8 0.2674 0.0 0.0 10.0
maxcyc 850
switch rfo 0.010
