opti conjugate nosymmetry conp 
pressure 100 GPa
title
ASE calculation
end

cell
 8.442198  9.347699  2.688661 89.99993 71.42885 89.99998
frac
 Mg core  0.7547090   0.2123480   0.9680010
 Mg core  0.7512430   0.7123490   0.4714670
 Mg core  0.2547090   0.0020160   0.4680010
 Mg core  0.2512430   0.5020170   0.9714650
 Al core  0.4261320   0.2413720   0.2965760
 Al core  0.0811100   0.2437380   0.1415980
 Al core  0.4248420   0.7437370   0.2978680
 Al core  0.5811090   0.9706280   0.6415990
 Al core  0.0798200   0.7413720   0.1428910
 Al core  0.9261320   0.9729930   0.7965760
 Al core  0.5798200   0.4729930   0.6428890
 Al core  0.9248420   0.4706280   0.7978680
 O  core  0.5838440   0.2842720   0.6388610
 O  core  0.6277460   0.8383880   0.0949630
 O  core  0.0838430   0.9300930   0.1388650
 O  core  0.2164080   0.6858730   0.5063020
 O  core  0.1277470   0.3759770   0.5949610
 O  core  0.4221090   0.4300930   0.3006000
 O  core  0.0167700   0.1411140   0.7059380
 O  core  0.2895430   0.1858730   0.9331660
 O  core  0.9891810   0.5732520   0.2335280
 O  core  0.7895430   0.0284920   0.4331640
 O  core  0.8782060   0.3383890   0.3445010
 O  core  0.9221080   0.7842720   0.8006020
 O  core  0.5167710   0.0732510   0.2059380
 O  core  0.7164090   0.5284920   0.0062990
 O  core  0.4891810   0.6411130   0.7335290
 O  core  0.3782050   0.8759770   0.8445050
space
1
species
Mg  2.0
Al  3.0
O  -2.0
buck
Mg O 1428.5 0.2945 0.0 0.0 10.0
Al O 1114.9 0.3118 0.0 0.0 10.0
O O  2023.8 0.2674 0.0 0.0 10.0
maxcyc 850
switch rfo 0.010
